50

96 3 289
93 25 280
86 20 258
86 4 297
85 3 291
83 20 300
80 22 262
80 22 259
80 2 291
79 22 288
77 20 235
68 18 218
67 18 277
64 0 250
64 19 204
63 1 250
60 5 245
57 5 259
55 13 257
54 5 262
54 13 200
54 13 208
54 16 286
52 9 296
52 14 265
52 16 287
51 14 203
44 3 282
43 1 258
41 13 232
41 13 286
39 0 280
39 0 285
39 6 237
38 2 245
36 2 200
36 6 134
35 4 286
34 2 298
34 9 213
31 8 148
31 5 169
29 4 208
29 0 267
28 8 133
24 3 76
23 3 181
22 0 245
22 7 255
20 5 210
